Optimal - objective value 120.00000000
     50 z_0_2_4_6                1         3.33333333333333
     65 z_0_3_1_2                1                       0
     74 z_0_3_2_0                1                   -1.25
     97 z_0_3_4_4                1                   -1.25
    124 z_0_4_2_3                1                       0
    146 z_0_4_4_3                1                       0
    164 z_0_5_0_10               1                     -10
    192 z_0_5_4_5                1                      -5
    202 z_1_0_0_4                1         3.33333333333333
    226 z_1_0_2_8                1         -0.833333333333333
    274 z_1_3_2_4                1                    1.25
    297 z_1_3_4_8                1                    -2.5
    317 z_1_4_2_0                1                       0
    344 z_1_4_4_5                1                       0
    358 z_1_5_0_8                1                      -5
    387 z_1_5_4_4                1                    -2.5
    399 z_2_0_0_5                1                       0
    414 z_2_0_2_0                1                       0
    499 z_2_2_4_8                1         8.88178419700125e-16
    516 z_2_3_1_6                1                    3.75
    523 z_2_3_2_2                1                       0
    545 z_2_3_4_5                1                     7.5
    569 z_2_4_2_1                1                       5
    594 z_2_4_4_4                1                      -5
    640 z_2_5_4_6                1                       5
    651 z_3_0_0_6                1                      -5
    675 z_3_0_2_10               1                       5
    701 z_3_1_0_3                1                       5
    716 z_3_1_1_7                1                     7.5
    754 z_3_3_1_3                1                   -1.25
    763 z_3_3_2_1                1                    1.25
    787 z_3_3_4_6                1                    -2.5
    811 z_3_4_2_2                1                       0
    833 z_3_4_4_2                1                       0
    850 z_4_0_0_8                1                       0
    863 z_4_0_2_1                1                       0
    905 z_4_1_0_10               1                      -5
    911 z_4_1_1_5                1                       0
    958 z_4_3_1_10               1                    -2.5
    962 z_4_3_2_3                1                     2.5
   1016 z_4_4_2_10               1                       0
   1034 z_4_4_4_6                1                       0
   1045 z_4_5_0_6                1                       0
   1080 z_4_5_4_8                1                       5
   1083 w_0_0                    1                       0
   1085 w_0_2                    1                       0
   1088 w_1_0                    1                       5
   1089 w_1_1                    1                       0
   1097 w_2_4                    1                       0
   1099 w_3_1                    1                    6.25
   1100 w_3_2                    1                      10
   1102 w_3_4                    1                      10
   1105 w_4_2                    1                       0
   1107 w_4_4                    1                      10
   1108 w_5_0                    1                      10
   1112 w_5_4                    1                       0
   1113 o_0_0_0                  1                       0
   1114 o_0_0_1                  1                       0
   1115 o_0_0_2    0.99999999999925                       0
   1116 o_0_0_3    0.99999999999925                       0
   1117 o_0_0_4    0.99999999999925                       0
   1118 o_0_0_5    0.99999999999925                       0
   1125 o_0_2_0                  1                       0
   1126 o_0_2_1     1.000000000001                       0
   1127 o_0_2_2     1.000000000001                       0
   1128 o_0_2_3                  1                       0
   1129 o_0_2_4                  1                       0
   1130 o_0_2_5                  1                       0
   1146 o_1_0_3                  1                       0
   1147 o_1_0_4     1.000000000001                       0
   1148 o_1_0_5    0.999999999999833                       0
   1151 o_1_1_2    0.999999999999219                       0
   1152 o_1_1_3    0.999999999998437                       0
   1153 o_1_1_4    0.999999999999219                       0
   1154 o_1_1_5                  1                       0
   1197 o_2_4_0    0.999999999999222                       0
   1198 o_2_4_1    0.999999999999222                       0
   1199 o_2_4_2                  1                       0
   1200 o_2_4_3    0.999999999999222                       0
   1209 o_3_1_0                  1                       0
   1210 o_3_1_1    1.00000000000075                       0
   1211 o_3_1_2     1.000000000002                       0
   1212 o_3_1_3                  1                       0
   1213 o_3_1_4                  1                    -2.5
   1214 o_3_1_5                  1                       0
   1215 o_3_2_0                  1                       0
   1216 o_3_2_1                  1                       0
   1217 o_3_2_2                  1                       0
   1218 o_3_2_3                  1                       0
   1219 o_3_2_4    0.999999999998438                       0
   1227 o_3_4_0    1.0000000000005                       0
   1228 o_3_4_1                  1                       0
   1229 o_3_4_2     1.000000000001                       0
   1230 o_3_4_3                  1                       0
   1231 o_3_4_4    0.999999999999375                       0
   1232 o_3_4_5                  1                    -2.5
   1245 o_4_2_0                  1                       0
   1246 o_4_2_1                  1                       0
   1247 o_4_2_2                  1                       0
   1248 o_4_2_3     1.000000000002                       0
   1249 o_4_2_4                  1                       0
   1250 o_4_2_5     1.000000000001                       0
   1257 o_4_4_0                  1                       0
   1258 o_4_4_1    1.00000000000017                       0
   1259 o_4_4_2                  1                       0
   1260 o_4_4_3     1.000000000001                       0
   1261 o_4_4_4                  1                       0
   1262 o_4_4_5    0.999999999999984                       0
   1263 o_5_0_0                  1                       0
   1264 o_5_0_1     1.000000000002                       0
   1265 o_5_0_2                  1                       0
   1266 o_5_0_3                  1                       0
   1267 o_5_0_4                  1                       0
   1268 o_5_0_5                  1                       0
   1287 o_5_4_0                  1                       0
   1288 o_5_4_1                  1                       0
   1289 o_5_4_2                  1                       0
   1290 o_5_4_3     1.000000000002                       0
   1291 o_5_4_4     1.000000000001                       0
   1292 o_5_4_5                  1                       0
   1297 e_0_0_4                  1                       0
   1298 e_0_0_5                  1                       0
   1301 e_0_1_2                  1                       0
   1305 e_0_2_0                  1                       0
   1308 e_0_2_3                  1                       0
   1317 e_0_4_0                  1                       0
   1318 e_0_4_1                  1                       0
   1320 e_0_4_3                  1                       0
   1321 e_0_4_4                  1                       0
   1322 e_0_4_5                  1                       0
   1325 e_1_0_2                  1                       0
   1326 e_1_0_3                  1                       0
   1327 e_1_0_4                  1                       0
   1335 e_1_2_0                  1                       0
   1337 e_1_2_2                  1                       0
   1338 e_1_2_3                  1                       0
   1339 e_1_2_4                  1                       0
   1349 e_1_4_2                  1                       0
   1350 e_1_4_3                  1                       0
   1351 e_1_4_4                  1                       0
   1352 e_1_4_5                  1                       0
   1358 e_2_0_5                  1                       0
   1359 e_2_1_0                  1                       0
   1360 e_2_1_1                  1                       0
   1365 e_2_2_0                  1                       0
   1366 e_2_2_1     1.000000000001                       0
   1367 e_2_2_2                  1                       0
   1377 e_2_4_0    0.999999999999722                       0
   1378 e_2_4_1    0.999999999999722                       0
   1379 e_2_4_2                  1                       0
   1380 e_2_4_3    0.999999999999222                       0
   1381 e_2_4_4                  1                       0
   1382 e_2_4_5                  1                      -5
   1383 e_3_0_0    1.00000000000017                       0
   1384 e_3_0_1    1.00000000000017                       0
   1386 e_3_0_3    1.00000000000025                       0
   1392 e_3_1_3                  1                       0
   1393 e_3_1_4     1.000000000001                    -2.5
   1394 e_3_1_5                  1                       0
   1396 e_3_2_1                  1                       0
   1397 e_3_2_2                  1                       0
   1399 e_3_2_4                  1                       0
   1400 e_3_2_5                  1                       0
   1407 e_3_4_0                  1                       0
   1408 e_3_4_1                  1                       0
   1409 e_3_4_2                  1                       0
   1413 e_4_0_0                  1                       0
   1414 e_4_0_1                  1                       0
   1415 e_4_0_2                  1                       0
   1416 e_4_0_3                  1                       0
   1417 e_4_0_4                  1                       0
   1418 e_4_0_5                  1                       0
   1421 e_4_1_2                  1                       0
   1422 e_4_1_3    0.999999999998437                       0
   1423 e_4_1_4    0.999999999999203                       0
   1424 e_4_1_5    0.999999999999984                       0
   1426 e_4_2_1                  1                    -2.5
   1428 e_4_2_3     1.000000000001                      -5
   1429 e_4_2_4     1.000000000001                       0
   1430 e_4_2_5                  1                       0
   1437 e_4_4_0                  1                       0
   1438 e_4_4_1                  1                       0
   1439 e_4_4_2                  1                       0
   1440 e_4_4_3                  1                       0
   1444 af_0_0_0                 1                       0
   1445 bf_0_0_1    1.000000000001                       0
   1446 af_0_0_1   0.99999999999925                       0
   1447 bf_0_0_2                 1                       0
   1448 af_0_0_2   0.99999999999925                       0
   1449 bf_0_0_3    1.000000000001                       0
   1450 af_0_0_3    0.999999999999                       0
   1451 bf_0_0_4                 1                       0
   1452 af_0_0_4                 1                       0
   1453 bf_0_0_5   0.99999999999925                       0
   1468 af_0_2_0                 1                       0
   1469 bf_0_2_1                 1                       0
   1470 af_0_2_1    0.999999999999                       0
   1471 bf_0_2_2    0.999999999999                       0
   1472 af_0_2_2                 1                       0
   1473 bf_0_2_3    1.000000000001                    -2.5
   1474 af_0_2_3                 1                       0
   1475 bf_0_2_4                 1                       0
   1476 af_0_2_4                 1                       0
   1477 bf_0_2_5                 1                       0
   1504 af_1_0_0                 1                       0
   1506 af_1_0_1    1.000000000001                       0
   1508 af_1_0_2    0.999999999999                       0
   1510 af_1_0_3                 1                       0
   1511 bf_1_0_4    1.000000000002                       0
   1512 af_1_0_4   0.999999999999833                       0
   1513 bf_1_0_5                 1                       0
   1516 af_1_1_0                 1                       0
   1518 af_1_1_1    1.000000000001                       0
   1520 af_1_1_2    1.000000000001                       0
   1521 bf_1_1_3                 1                       0
   1522 af_1_1_3                 1                       0
   1523 bf_1_1_4    0.999999999999                       0
   1524 af_1_1_4                 1                       0
   1525 bf_1_1_5                 1                       0
   1612 af_2_4_0                 1                       0
   1613 bf_2_4_1                 1                       0
   1614 af_2_4_1    0.999999999999                       0
   1615 bf_2_4_2    1.000000000001                       0
   1616 af_2_4_2                 1                       0
   1617 bf_2_4_3                 1                       0
   1619 bf_2_4_4   0.999999999999222                       0
   1621 bf_2_4_5                 1                       0
   1636 af_3_1_0                 1                       0
   1637 bf_3_1_1                 1                       0
   1638 af_3_1_1                 1                   -1.25
   1639 bf_3_1_2                 1                       0
   1640 af_3_1_2                 1                       0
   1641 bf_3_1_3    1.000000000001                       0
   1642 af_3_1_3    1.000000000001                       0
   1643 bf_3_1_4    0.999999999999                       0
   1644 af_3_1_4                 1                       0
   1645 bf_3_1_5                 1                       0
   1648 af_3_2_0    0.999999999999                       0
   1649 bf_3_2_1    1.000000000001                       0
   1650 af_3_2_1    0.999999999999                       0
   1651 bf_3_2_2                 1                       0
   1652 af_3_2_2                 1                       0
   1653 bf_3_2_3                 1                       0
   1654 af_3_2_3    1.000000000001                       0
   1655 bf_3_2_4                 1                       0
   1657 bf_3_2_5    0.999999999999                       0
   1672 af_3_4_0    0.999999999999                       0
   1673 bf_3_4_1    1.000000000001                       0
   1674 af_3_4_1    0.999999999999                       0
   1675 bf_3_4_2                 1                       0
   1676 af_3_4_2    0.999999999999                       0
   1677 bf_3_4_3                 1                       0
   1678 af_3_4_3                 1                       0
   1679 bf_3_4_4                 1                       0
   1680 af_3_4_4                 1                       0
   1681 bf_3_4_5                 1                       0
   1708 af_4_2_0                 1                       0
   1709 bf_4_2_1                 1                       0
   1710 af_4_2_1    0.999999999999                       0
   1711 bf_4_2_2    0.999999999999                       0
   1712 af_4_2_2    1.000000000001                       0
   1713 bf_4_2_3    1.000000000003                       0
   1714 af_4_2_3                 1                       0
   1715 bf_4_2_4    1.000000000002                       0
   1716 af_4_2_4                 1                       0
   1717 bf_4_2_5                 1                       0
   1732 af_4_4_0                 1                       0
   1733 bf_4_4_1                 1                       0
   1734 af_4_4_1    0.999999999999                       0
   1735 bf_4_4_2    0.999999999999                       0
   1736 af_4_4_2    0.999999999999                       0
   1737 bf_4_4_3                 1                       0
   1738 af_4_4_3                 1                       0
   1739 bf_4_4_4                 1                       0
   1740 af_4_4_4                 1                       0
   1741 bf_4_4_5                 1                       0
   1744 af_5_0_0                 1                       0
   1745 bf_5_0_1    1.000000000002                       0
   1746 af_5_0_1    0.999999999999                       0
   1747 bf_5_0_2    1.000000000001                       0
   1748 af_5_0_2                 1                       0
   1749 bf_5_0_3                 1                       0
   1750 af_5_0_3                 1                       0
   1751 bf_5_0_4                 1                       0
   1752 af_5_0_4                 1                       0
   1753 bf_5_0_5    0.999999999999                       0
   1792 af_5_4_0                 1                       0
   1793 bf_5_4_1                 1                       0
   1794 af_5_4_1                 1                       0
   1795 bf_5_4_2                 1                       0
   1796 af_5_4_2                 1                       0
   1797 bf_5_4_3    0.999999999999                       0
   1798 af_5_4_3                 1                       0
   1799 bf_5_4_4    1.000000000001                       0
   1800 af_5_4_4    1.000000000001                       0
   1801 bf_5_4_5    0.999999999999                       0
